c array.sh: path:     /data/qbf/qbf20/PCNF/exquery_query64_1344n.qdimacs
c array.sh: name:     exquery_query64_1344n
c array.sh: task:     46
c array.sh: host:     c3n23
c array.sh: uname:    Linux c3n23 4.15.0-135-generic #139-Ubuntu SMP Mon Jan 18 17:38:24 UTC 2021 x86_64 x86_64 x86_64 GNU/Linux
c array.sh: start:    Thu Feb 18 09:53:05 CET 2021
c array.sh: noturbo:  1
c array.sh: governor: 32 performance
c array.sh: tmp:      1%
c array.sh: unzipped: /tmp/local-unzipped-18838260-46-exquery_query64_1344n.cnf
*** qbfcert: using tmp directory:
*** qbfcert:   /tmp
trace-size: 2940298
solving-res 20
proof-size: 48534
cert-size: 2762
cert-header: aag 675 585 0 22 22
merged-header: p cnf 5859 13592
merged-size: 192084
c ---- [ banner ] ------------------------------------------------------------
c
c KISSAT SAT Solver
c Copyright (c) 2019-2020 Armin Biere JKU Linz
c 
c Version 1.0.3 59813addcacc4d6fb880ebdd63685600475aa940
c gcc (Ubuntu 7.5.0-3ubuntu1~18.04) 7.5.0 -W -Wall -O3 -DNEMBEDDED -DNDEBUG -DNMETRICS -DNSTATISTICS
c Sun Feb 14 23:58:54 CET 2021 Linux cluster3 4.15.0-135-generic x86_64
c
c ---- [ parsing ] -----------------------------------------------------------
c
c opened and reading DIMACS file:
c 
c   /tmp/qbfcert_merged_cnf10556.cnf
c 
c parsed 'p cnf 5859 13592' header
c closing input after reading 192084 bytes (188 KB)
c finished parsing after 0.00 seconds
c
c ---- [ solving ] -----------------------------------------------------------
c
c  seconds reductions redundant irredundant
c         MB   restarts    trail     variables
c          level  conflicts   glue        remaining
c
c *  0.00  3 0  0  0   0   0 0% 0 13580 1089 19%
c {  0.00  3 0  0  0   0   0 0% 0 13580 1089 19%
c i  0.00  3 68  0  0   1   0 61% 0 13580 1055 18%
c i  0.00  3 20  0  1   3   1 28% 1 13580 1015 17%
c i  0.00  3 12  0  1   5   2 22% 1 13580 973 17%
c i  0.00  3 8  0  1   7   3 18% 1 13580 933 16%
c }  0.00  3 6  0  1   9   3 14% 1 13580 882 15%
c 0  0.00  3 6  0  1   9   3 14% 1 13580 882 15%
c
c ---- [ result ] ------------------------------------------------------------
c
s UNSATISFIABLE
c
c ---- [ profiling ] ---------------------------------------------------------
c
c           0.00   87.61 %  parse
c           0.00    9.50 %  search
c           0.00    7.68 %  focused
c           0.00    0.00 %  simplify
c =============================================
c           0.00  100.00 %  total
c
c ---- [ statistics ] --------------------------------------------------------
c
c conflicts:                                9             1783.94 per second
c decisions:                               81                9.00 per conflict
c propagations:                          5609          1111794    per second
c restarts:                                 1                9.00 interval
c
c ---- [ resources ] ---------------------------------------------------------
c
c maximum-resident-set-size:          3215360 bytes          3 MB
c process-time:                             0s               0.00 seconds
c
c ---- [ shutting down ] -----------------------------------------------------
c
c exit 20
*** qbfcert: VALID
c array.sh: end:      Thu Feb 18 09:53:05 CET 2021
